max
	obj: 139x + 88y + 133z + 137t + 165r
st
	c1:  1.4x + 1.8y + 1.5z + 1.4t + 1.4r                                                      <= 420
	c2:  9.8x + 2.4y + 1.4z + 1.4t + 1.4r                                                      <= 415
	c3:  4.0x + 0.4y + 1.4z + 1.4t + 1.4r                                                      <= 355
	c4:  2.8x + 0.6y + 1.3z + 1.4t + 1.5r + 5.5s1                                              <= 345
	c5:  2.2x + 0.4y + 1.3z + 1.5t + 1.2r         + 5.5s2                                      <= 160
	c6:  2.2x + 0.4y + 1.3z + 1.3t + 1.2r                 + 5.5s3                              <= 95
	c7:  2.2x + 0.6y + 1.3z + 1.3t + 1.2r                         + 5.5s4                      <= 370
	c8:  2.6x + 5.8y + 1.5z + 1.5t + 1.2r                                 + 5.5s5              <= 405
	c9:  0.6x + 4.Oy + 1.3z                                                       + 5.5s6      <= 272
	c10: 0.6x + 1.2y + 1.3z + 1.3t + 2.6r                                                      <= 235
	c11: 0.6x + 1.8y + 1.2z + 1.2t + 1.2r                                                      <= 310
	c12: 0.6x + 1.8y + 1.5z + 1.4t + 1.4r                                                      <= 420

	c13: 16x                + 12t  + 35r  + 50s1 + 50s2                                        <= 5200
	c14: 20x                + 36t  + 50r                + 50s3 + 50s4                          <= 5200
	c15: 16x                + 12t  + 35r                                 + 50s5    + 50s6      <= 3600

        c16:                                      s1 +   s2 +   s3 +   s4 +   s5 +   s6       - st  = 0

	c17:        0.1y + 0.9z + 0.8t + 2.3r                                                 - st <= 0

bounds
	x  >= 0
	y  >= 0
	z  >= 0
	t  >= 0
	r  >= 0
	s1 >= 0
	s2 >= 0
	s3 >= 0
	s4 >= 0
	s5 >= 0
	s6 >= 0
	st >= 0

end
